WARNING: for repeatability, setting FPU to use double precision
============================[ Problem Statistics ]=============================
|                                                                             |
|  Number of variables:            50                                         |
|  Number of clauses:             218                                         |
|  Parse time:                   0.00 s                                       |
|                                                                             |
============================[ Search Statistics ]==============================
| Conflicts |          ORIGINAL         |          LEARNT          | Progress |
|           |    Vars  Clauses Literals |    Limit  Clauses Lit/Cl |          |
===============================================================================
===============================================================================
restarts              : 1
conflicts             : 62             (326316 /sec)
decisions             : 69             (0.00 % random) (363158 /sec)
propagations          : 785            (4131579 /sec)
conflict literals     : 214            (20.74 % deleted)
Memory used           : 20.00 MB
CPU time              : 0.00019 s

UNSATISFIABLE
